
n_res = 8;
rcap = [81, 78, 83, 76, 709, 799, 720, 765];
rtype = [1, 1, 1, 1, 2, 2, 2, 2];
n_tasks = 50;
modes =  [{1, 2, 3}, {4, 5, 6}, {7, 8, 9}, {10, 11, 12}, {13, 14, 15}, {16, 17, 18}, {19, 20, 21}, {22, 23, 24}, {25, 26, 27}, {28, 29, 30}, {31, 32, 33}, {34, 35, 36}, {37, 38, 39}, {40, 41, 42}, {43, 44, 45}, {46, 47, 48}, {49, 50, 51}, {52, 53, 54}, {55, 56, 57}, {58, 59, 60}, {61, 62, 63}, {64, 65, 66}, {67, 68, 69}, {70, 71, 72}, {73, 74, 75}, {76, 77, 78}, {79, 80, 81}, {82, 83, 84}, {85, 86, 87}, {88, 89, 90}, {91, 92, 93}, {94, 95, 96}, {97, 98, 99}, {100, 101, 102}, {103, 104, 105}, {106, 107, 108}, {109, 110, 111}, {112, 113, 114}, {115, 116, 117}, {118, 119, 120}, {121, 122, 123}, {124, 125, 126}, {127, 128, 129}, {130, 131, 132}, {133, 134, 135}, {136, 137, 138}, {139, 140, 141}, {142, 143, 144}, {145, 146, 147}, {148, 149, 150}];
succ =  [{39, 26, 21, 19, 13, 12, 8}, {25, 23, 21, 19, 18, 17, 16, 14}, {39, 26, 25, 23, 14, 12}, {26, 25, 23, 22, 20, 12}, {26, 23, 21, 20, 18, 13}, {28, 26, 22, 20, 18, 16}, {50, 35, 31, 30, 27, 26, 25, 24, 23, 22, 20}, {50, 31, 25, 23, 16}, {28, 22, 20, 16}, {31, 23, 22, 16}, {35, 34, 33, 30, 28, 23, 21}, {30, 27, 24, 18}, {35, 33, 28, 27, 24, 22}, {50, 38, 31, 24, 22, 20}, {31, 27, 23, 22, 20}, {35, 33, 30, 29, 27, 24}, {50, 47, 27, 26, 24}, {50, 44, 38, 37, 35, 33, 32, 31, 29}, {49, 44, 38, 36, 35, 34, 33, 32, 29}, {49, 48, 47, 46, 44, 37, 36, 34, 33}, {49, 44, 37, 31, 29}, {47, 44, 37, 36, 29}, {49, 47, 46, 44, 38, 36, 32}, {49, 46, 44, 36, 34, 32}, {47, 46, 45, 44, 38, 32}, {48, 44, 37, 36, 33}, {48, 46, 44, 40, 38, 36}, {50, 48, 45, 44, 41, 36}, {48, 46, 45, 43, 40}, {45, 44, 40, 37}, {47, 40, 36}, {42, 41, 40}, {45, 43, 40}, {43, 42, 41}, {47, 41}, {42}, {41}, {43}, {40}, {}, {}, {}, {}, {}, {}, {}, {}, {}, {}, {}];
n_opt = 150;
dur = [1, 8, 16, 11, 21, 23, 16, 23, 27, 4, 12, 24, 11, 12, 26, 5, 22, 24, 9, 11, 20, 5, 14, 25, 9, 24, 26, 3, 25, 29, 13, 21, 23, 10, 20, 29, 12, 26, 27, 1, 12, 14, 2, 11, 23, 10, 12, 19, 5, 9, 19, 9, 13, 30, 5, 11, 18, 2, 6, 19, 6, 17, 20, 23, 27, 28, 3, 23, 26, 2, 8, 13, 6, 19, 21, 8, 16, 22, 4, 11, 14, 3, 9, 10, 3, 12, 22, 9, 18, 20, 1, 16, 20, 12, 16, 17, 1, 12, 22, 4, 10, 20, 7, 15, 27, 1, 10, 15, 3, 10, 11, 10, 16, 30, 6, 8, 12, 8, 19, 28, 3, 21, 25, 4, 10, 13, 1, 4, 23, 22, 28, 30, 2, 8, 30, 12, 13, 27, 4, 9, 14, 5, 27, 28, 9, 16, 17, 22, 26, 29];
rreq = [|9, 8, 8, 28, 25, 25, 20, 19, 14, 29, 29, 29, 24, 19, 13, 24, 20, 13, 20, 13, 9, 12, 10, 3, 14, 14, 8, 25, 23, 17, 29, 21, 17, 21, 9, 3, 24, 10, 2, 18, 13, 4, 14, 7, 3, 17, 15, 10, 23, 21, 18, 27, 14, 7, 9, 9, 9, 4, 4, 2, 26, 21, 20, 12, 8, 7, 11, 8, 7, 24, 15, 10, 14, 13, 11, 25, 19, 16, 14, 13, 11, 4, 2, 2, 9, 6, 1, 15, 8, 5, 19, 16, 7, 16, 16, 14, 14, 12, 12, 27, 24, 19, 19, 17, 14, 10, 10, 10, 22, 15, 3, 16, 14, 8, 26, 25, 22, 17, 10, 3, 16, 10, 3, 27, 26, 26, 7, 6, 2, 22, 17, 15, 13, 13, 10, 23, 20, 16, 22, 22, 21, 26, 26, 26, 14, 14, 8, 19, 17, 17
 |26, 26, 22, 7, 5, 2, 19, 16, 13, 11, 6, 5, 24, 20, 16, 22, 18, 14, 24, 21, 16, 19, 19, 17, 23, 23, 19, 22, 21, 14, 13, 10, 10, 25, 23, 21, 22, 16, 15, 27, 27, 26, 14, 9, 9, 11, 9, 6, 15, 11, 8, 8, 7, 7, 20, 18, 13, 27, 21, 21, 10, 8, 5, 6, 5, 4, 22, 22, 22, 14, 14, 13, 7, 4, 2, 17, 16, 16, 18, 12, 9, 1, 1, 1, 28, 27, 25, 18, 14, 9, 19, 11, 3, 27, 27, 25, 26, 22, 21, 29, 27, 27, 14, 13, 10, 13, 7, 3, 22, 20, 17, 25, 18, 10, 28, 20, 15, 20, 20, 19, 26, 26, 25, 27, 22, 20, 23, 22, 22, 16, 10, 5, 24, 15, 12, 23, 16, 9, 21, 9, 8, 27, 22, 19, 27, 24, 20, 18, 18, 16
 |27, 26, 25, 27, 24, 22, 26, 22, 18, 19, 13, 12, 26, 25, 21, 15, 12, 9, 17, 17, 16, 10, 4, 1, 18, 16, 13, 24, 23, 21, 25, 14, 8, 24, 12, 7, 17, 14, 14, 25, 21, 13, 22, 21, 20, 18, 16, 16, 24, 22, 16, 23, 21, 11, 21, 16, 7, 14, 13, 12, 11, 9, 6, 12, 12, 6, 23, 19, 4, 13, 7, 4, 20, 16, 13, 27, 27, 25, 29, 21, 21, 28, 24, 21, 29, 29, 29, 23, 11, 8, 14, 10, 6, 18, 12, 8, 9, 7, 3, 25, 15, 9, 15, 12, 5, 20, 20, 17, 9, 9, 8, 19, 14, 5, 8, 8, 8, 15, 13, 12, 20, 15, 4, 24, 24, 24, 23, 14, 12, 19, 17, 14, 25, 22, 16, 15, 8, 6, 12, 12, 10, 21, 19, 9, 13, 12, 8, 22, 22, 14
 |16, 16, 14, 10, 7, 2, 11, 6, 4, 23, 12, 10, 24, 17, 9, 12, 11, 6, 13, 9, 8, 12, 12, 12, 20, 15, 15, 29, 18, 15, 25, 23, 15, 29, 25, 24, 26, 18, 12, 10, 9, 9, 26, 22, 20, 16, 11, 9, 27, 25, 21, 26, 18, 5, 26, 20, 20, 13, 12, 12, 14, 9, 5, 26, 20, 10, 17, 15, 15, 21, 18, 17, 29, 23, 18, 21, 20, 19, 29, 17, 5, 9, 8, 7, 29, 24, 21, 12, 8, 4, 24, 22, 22, 12, 10, 6, 24, 17, 13, 24, 24, 22, 29, 28, 25, 6, 6, 6, 17, 16, 12, 19, 16, 14, 12, 12, 12, 23, 21, 9, 15, 10, 4, 23, 18, 15, 19, 14, 10, 17, 11, 10, 22, 21, 13, 22, 13, 6, 25, 23, 14, 28, 23, 16, 19, 15, 15, 24, 18, 10
 |12, 10, 10, 12, 11, 11, 14, 9, 8, 23, 12, 11, 27, 27, 25, 30, 24, 19, 20, 19, 10, 21, 20, 18, 20, 20, 19, 23, 22, 21, 25, 22, 22, 20, 16, 11, 18, 14, 13, 17, 13, 9, 18, 17, 15, 1, 1, 1, 14, 14, 13, 18, 8, 7, 21, 15, 9, 12, 12, 12, 18, 12, 11, 26, 25, 21, 3, 3, 1, 5, 4, 2, 22, 20, 20, 17, 15, 14, 17, 9, 4, 13, 11, 9, 11, 9, 7, 9, 7, 5, 26, 24, 24, 26, 18, 4, 16, 15, 14, 20, 14, 11, 22, 18, 15, 7, 6, 6, 11, 7, 3, 18, 12, 11, 13, 12, 12, 14, 13, 13, 21, 14, 10, 25, 23, 20, 11, 11, 9, 21, 13, 7, 14, 8, 4, 15, 15, 15, 19, 15, 11, 20, 14, 10, 12, 12, 12, 7, 7, 5
 |24, 19, 16, 27, 26, 26, 23, 16, 3, 11, 10, 4, 17, 11, 8, 12, 10, 7, 16, 16, 14, 16, 15, 15, 21, 15, 12, 21, 13, 10, 25, 20, 14, 24, 23, 20, 27, 23, 20, 12, 11, 9, 15, 13, 8, 21, 14, 12, 17, 16, 2, 28, 25, 24, 21, 17, 14, 19, 7, 1, 10, 9, 9, 16, 11, 6, 27, 25, 18, 24, 22, 22, 28, 25, 15, 16, 16, 16, 19, 19, 19, 22, 16, 13, 26, 9, 1, 15, 14, 14, 9, 9, 9, 28, 22, 14, 22, 22, 18, 27, 14, 13, 23, 15, 9, 24, 19, 11, 17, 16, 14, 28, 13, 2, 16, 14, 10, 27, 12, 6, 19, 11, 5, 18, 13, 9, 26, 20, 15, 22, 15, 11, 27, 20, 13, 17, 15, 8, 15, 9, 8, 25, 25, 20, 5, 4, 3, 18, 17, 15
 |19, 16, 14, 15, 11, 6, 16, 12, 3, 20, 15, 14, 13, 10, 6, 22, 16, 16, 19, 18, 15, 22, 19, 17, 18, 14, 14, 21, 21, 13, 5, 4, 2, 24, 21, 15, 19, 9, 1, 3, 3, 3, 21, 15, 11, 19, 17, 17, 25, 17, 13, 29, 25, 24, 13, 13, 11, 17, 9, 1, 21, 20, 19, 28, 22, 13, 23, 19, 18, 2, 2, 2, 10, 7, 6, 3, 3, 2, 8, 6, 6, 23, 23, 23, 27, 20, 13, 13, 11, 4, 17, 14, 5, 28, 25, 24, 15, 10, 10, 25, 20, 12, 29, 26, 24, 25, 19, 10, 23, 17, 10, 20, 16, 11, 5, 4, 4, 18, 17, 11, 17, 9, 4, 25, 22, 18, 18, 13, 10, 13, 11, 7, 24, 17, 10, 8, 7, 7, 26, 18, 7, 30, 22, 22, 17, 10, 5, 5, 2, 1
 |9, 7, 5, 24, 24, 24, 10, 10, 9, 17, 10, 8, 11, 8, 8, 14, 14, 10, 18, 9, 3, 29, 29, 28, 19, 17, 13, 16, 14, 12, 23, 19, 11, 21, 15, 8, 28, 26, 26, 24, 19, 9, 24, 19, 17, 19, 18, 11, 16, 12, 11, 22, 20, 12, 26, 16, 9, 22, 21, 21, 22, 19, 15, 22, 15, 12, 14, 14, 14, 18, 15, 6, 18, 14, 10, 26, 22, 18, 5, 4, 4, 14, 13, 10, 17, 16, 16, 11, 9, 8, 16, 15, 15, 23, 21, 21, 14, 10, 8, 14, 11, 5, 24, 21, 19, 7, 6, 6, 22, 15, 5, 11, 9, 8, 23, 15, 15, 19, 19, 17, 19, 10, 7, 19, 17, 17, 13, 8, 5, 25, 21, 12, 10, 4, 2, 20, 16, 10, 19, 18, 17, 23, 13, 6, 27, 24, 24, 23, 18, 13|];